70
726
4
41
21
3
13
0 1
0 2
0 6
0 9
0 10
0 14
0 15
0 19
0 26
0 27
0 30
0 33
0 34
0 35
0 36
0 41
0 42
0 46
0 52
0 55
0 59
0 60
0 61
0 68
1 5
1 8
1 10
1 12
1 16
1 17
1 20
1 32
1 34
1 35
1 38
1 42
1 44
1 48
1 50
1 51
1 53
1 55
1 58
1 62
1 63
1 64
1 66
2 3
2 5
2 16
2 25
2 26
2 27
2 28
2 29
2 30
2 31
2 32
2 33
2 34
2 38
2 48
2 55
2 56
2 60
2 61
2 62
2 66
2 68
2 69
3 4
3 9
3 13
3 17
3 23
3 24
3 25
3 27
3 30
3 32
3 33
3 36
3 38
3 40
3 45
3 49
3 57
3 58
3 59
3 60
3 62
3 63
3 64
3 66
3 67
4 8
4 11
4 13
4 16
4 17
4 18
4 19
4 20
4 21
4 34
4 36
4 37
4 38
4 40
4 44
4 48
4 49
4 51
4 52
4 55
4 65
5 6
5 19
5 22
5 23
5 26
5 28
5 35
5 37
5 43
5 45
5 46
5 55
5 57
5 58
5 61
5 64
6 7
6 9
6 17
6 19
6 23
6 25
6 27
6 28
6 29
6 32
6 36
6 39
6 40
6 41
6 44
6 45
6 49
6 51
6 54
6 59
6 61
6 62
6 64
7 8
7 10
7 12
7 20
7 22
7 24
7 26
7 34
7 37
7 39
7 45
7 49
7 52
7 57
7 58
7 61
7 63
7 64
8 10
8 14
8 16
8 17
8 18
8 19
8 23
8 30
8 32
8 44
8 48
8 49
8 51
8 53
8 58
8 60
8 66
9 11
9 13
9 14
9 15
9 17
9 25
9 27
9 28
9 29
9 30
9 32
9 40
9 41
9 45
9 55
9 62
9 63
9 67
9 69
10 12
10 13
10 23
10 34
10 40
10 46
10 48
10 49
10 52
10 55
10 58
10 66
10 69
11 13
11 15
11 20
11 21
11 28
11 29
11 43
11 47
11 49
11 69
12 17
12 18
12 19
12 27
12 28
12 29
12 31
12 32
12 34
12 36
12 41
12 50
12 57
12 61
12 62
12 64
13 18
13 19
13 22
13 27
13 31
13 34
13 38
13 46
13 48
13 58
13 60
13 61
13 65
13 68
14 19
14 23
14 29
14 31
14 32
14 39
14 43
14 47
14 48
14 49
14 50
14 52
14 53
14 54
14 56
14 63
15 19
15 21
15 22
15 24
15 26
15 28
15 29
15 30
15 33
15 37
15 39
15 42
15 44
15 46
15 47
15 48
15 59
15 62
15 65
15 69
16 19
16 31
16 34
16 37
16 39
16 43
16 45
16 48
16 58
16 61
16 65
17 20
17 28
17 29
17 30
17 43
17 47
17 49
17 52
17 55
17 59
17 60
17 66
18 19
18 20
18 29
18 30
18 31
18 38
18 43
18 51
18 64
18 65
18 66
18 69
19 20
19 25
19 26
19 27
19 28
19 29
19 32
19 34
19 35
19 36
19 42
19 45
19 47
19 48
19 52
19 54
19 55
19 58
19 62
19 67
19 68
19 69
20 21
20 23
20 28
20 37
20 38
20 43
20 44
20 46
20 48
20 52
20 54
20 56
20 57
20 60
20 68
21 22
21 27
21 30
21 38
21 40
21 42
21 43
21 45
21 49
21 57
21 67
21 69
22 23
22 26
22 29
22 30
22 31
22 33
22 34
22 40
22 48
22 53
22 55
22 60
22 64
22 69
23 25
23 28
23 29
23 31
23 37
23 43
23 48
23 51
23 52
23 61
23 63
23 65
24 27
24 28
24 32
24 33
24 38
24 40
24 41
24 45
24 47
24 48
24 50
24 51
24 52
24 55
24 57
24 62
24 64
24 65
24 66
24 68
25 29
25 37
25 39
25 43
25 44
25 47
25 48
25 50
25 55
25 57
25 58
25 59
25 60
25 63
25 65
25 69
26 33
26 35
26 41
26 42
26 47
26 48
26 50
26 51
26 54
26 58
26 59
26 68
27 30
27 37
27 38
27 42
27 44
27 47
27 50
27 55
27 59
27 62
28 34
28 36
28 37
28 39
28 50
28 57
28 63
28 64
28 68
29 37
29 43
29 45
29 46
29 49
29 50
29 51
29 54
29 57
29 58
29 59
29 61
29 62
29 64
29 65
29 66
30 31
30 39
30 41
30 44
30 53
30 59
30 60
30 61
30 65
30 66
30 69
31 40
31 41
31 42
31 45
31 46
31 47
31 49
31 50
31 54
31 55
31 56
31 59
31 60
31 66
32 42
32 43
32 44
32 49
32 51
32 58
32 60
32 61
32 64
32 65
32 69
33 34
33 36
33 38
33 39
33 40
33 41
33 46
33 54
33 57
33 58
33 59
33 62
33 66
33 67
34 36
34 41
34 44
34 45
34 51
34 52
34 63
35 37
35 41
35 53
35 55
35 60
35 64
35 65
35 68
35 69
36 37
36 42
36 44
36 48
36 52
36 54
36 60
36 61
36 63
36 65
36 66
37 40
37 41
37 43
37 48
37 50
37 52
37 54
37 55
37 56
37 57
37 58
37 60
37 62
37 69
38 46
38 47
38 49
38 58
38 62
38 66
38 67
38 68
39 41
39 42
39 46
39 49
39 62
39 64
39 67
40 44
40 49
40 53
40 57
40 59
40 60
40 61
40 62
40 64
40 67
40 68
41 44
41 46
41 47
41 52
41 54
41 57
41 59
41 61
42 48
42 51
42 54
42 55
42 57
42 61
42 68
43 48
43 50
43 55
43 60
43 61
43 63
43 66
43 68
44 48
44 51
44 55
44 60
44 64
45 47
45 48
45 49
45 54
45 55
45 64
45 65
45 66
45 69
46 52
46 55
46 64
46 66
46 67
47 48
47 49
47 50
47 51
47 53
47 55
47 59
47 60
47 65
47 66
47 69
48 49
48 52
48 53
48 60
48 64
48 67
48 68
49 51
49 52
49 53
49 58
49 60
49 61
49 64
50 52
50 56
50 59
50 60
50 64
51 52
51 55
51 57
51 60
51 61
51 63
52 53
52 54
52 56
52 59
52 63
52 65
53 55
53 59
53 60
53 61
53 64
53 65
53 66
53 67
53 69
54 64
55 62
55 63
55 67
55 68
55 69
56 57
56 62
57 58
57 63
57 68
58 63
58 64
59 60
59 62
59 65
59 69
60 61
61 62
61 68
65 67
65 69
66 67
67 68
67 69
6 29 58 53 42 56 30 41 50 13 0 36 48 10 37 64 28 26 62 21 61
11 23 15 55 68 54 52 33 4 45 8 57 43 38 12 32 59 7 65 34 67
31 40 5 66 1 18 25 17 14 9 39 47 44 22 27 60 24 3 46 69 16
20 51 35 2 49 63 19
